benchmarks_CP/INST_36x36/20/inst36x36_20_62.dzn
S=6;
start=[|
-1,	-1,	-1,	-1,	1,	-1,	11,	-1,	4,	-1,	-1,	-1,	-1,	24,	-1,	-1,	-1,	-1,	-1,	16,	-1,	-1,	-1,	-1,	30,	-1,	-1,	33,	-1,	-1,	-1,	-1,	-1,	-1,	-1,	20|
-1,	-1,	24,	-1,	-1,	-1,	13,	-1,	-1,	-1,	-1,	-1,	28,	-1,	-1,	-1,	-1,	-1,	-1,	31,	-1,	8,	-1,	-1,	20,	9,	-1,	6,	-1,	-1,	-1,	-1,	-1,	-1,	7,	-1|
-1,	-1,	-1,	-1,	34,	-1,	-1,	15,	1,	-1,	-1,	-1,	8,	12,	-1,	-1,	-1,	-1,	17,	-1,	-1,	-1,	-1,	-1,	-1,	3,	-1,	18,	-1,	-1,	-1,	28,	36,	-1,	-1,	-1|
-1,	-1,	-1,	-1,	-1,	-1,	36,	-1,	-1,	34,	-1,	-1,	-1,	-1,	-1,	15,	1,	-1,	-1,	-1,	-1,	-1,	-1,	19,	-1,	-1,	-1,	-1,	-1,	-1,	9,	-1,	-1,	-1,	-1,	-1|
-1,	8,	-1,	-1,	29,	-1,	-1,	-1,	-1,	-1,	-1,	-1,	-1,	-1,	-1,	-1,	-1,	-1,	-1,	-1,	-1,	-1,	15,	-1,	-1,	-1,	36,	-1,	-1,	1,	-1,	-1,	-1,	-1,	-1,	-1|
-1,	-1,	-1,	-1,	-1,	-1,	-1,	-1,	-1,	-1,	31,	-1,	-1,	-1,	-1,	-1,	-1,	-1,	23,	-1,	-1,	13,	-1,	28,	-1,	-1,	-1,	-1,	-1,	-1,	-1,	-1,	-1,	-1,	-1,	-1|
-1,	-1,	-1,	-1,	-1,	-1,	21,	-1,	-1,	-1,	-1,	-1,	-1,	-1,	2,	-1,	3,	-1,	-1,	-1,	-1,	-1,	-1,	30,	-1,	-1,	-1,	-1,	-1,	-1,	-1,	-1,	-1,	-1,	-1,	-1|
-1,	32,	-1,	7,	-1,	-1,	-1,	-1,	-1,	15,	-1,	-1,	-1,	-1,	35,	-1,	-1,	-1,	-1,	6,	-1,	-1,	18,	-1,	-1,	22,	-1,	28,	-1,	-1,	-1,	-1,	-1,	-1,	-1,	-1|
-1,	-1,	-1,	31,	-1,	-1,	-1,	-1,	-1,	-1,	7,	-1,	-1,	-1,	-1,	4,	-1,	-1,	-1,	23,	-1,	-1,	-1,	-1,	-1,	16,	-1,	-1,	-1,	-1,	-1,	5,	-1,	-1,	-1,	-1|
-1,	-1,	-1,	-1,	4,	-1,	-1,	-1,	29,	-1,	-1,	-1,	-1,	-1,	-1,	-1,	-1,	-1,	31,	36,	-1,	-1,	-1,	-1,	-1,	14,	5,	-1,	26,	-1,	-1,	-1,	-1,	-1,	-1,	-1|
-1,	-1,	-1,	-1,	-1,	-1,	-1,	-1,	32,	28,	-1,	-1,	-1,	-1,	-1,	-1,	-1,	25,	-1,	-1,	-1,	-1,	-1,	-1,	18,	23,	-1,	-1,	-1,	-1,	-1,	-1,	-1,	-1,	-1,	-1|
-1,	-1,	-1,	1,	-1,	-1,	-1,	-1,	-1,	-1,	-1,	-1,	-1,	-1,	-1,	-1,	-1,	12,	-1,	-1,	-1,	9,	-1,	-1,	-1,	-1,	-1,	-1,	-1,	7,	-1,	-1,	-1,	-1,	-1,	-1|
-1,	-1,	1,	-1,	-1,	-1,	-1,	-1,	15,	-1,	-1,	-1,	13,	31,	33,	-1,	22,	18,	-1,	-1,	-1,	12,	-1,	-1,	-1,	27,	-1,	-1,	-1,	-1,	-1,	-1,	-1,	-1,	-1,	-1|
36,	-1,	-1,	28,	-1,	-1,	-1,	-1,	-1,	-1,	25,	-1,	-1,	2,	15,	32,	26,	-1,	13,	-1,	-1,	30,	-1,	-1,	-1,	-1,	-1,	-1,	22,	-1,	-1,	-1,	-1,	-1,	-1,	-1|
-1,	-1,	11,	-1,	-1,	-1,	-1,	-1,	-1,	-1,	23,	26,	-1,	-1,	-1,	-1,	-1,	-1,	-1,	-1,	-1,	1,	2,	-1,	-1,	-1,	-1,	-1,	-1,	-1,	-1,	-1,	-1,	-1,	-1,	-1|
-1,	-1,	-1,	-1,	-1,	-1,	-1,	7,	-1,	-1,	-1,	-1,	-1,	-1,	-1,	-1,	-1,	-1,	-1,	-1,	-1,	-1,	-1,	25,	-1,	-1,	-1,	4,	33,	-1,	-1,	-1,	-1,	29,	-1,	5|
-1,	-1,	-1,	-1,	-1,	-1,	-1,	-1,	-1,	-1,	-1,	31,	-1,	9,	-1,	-1,	-1,	19,	-1,	-1,	-1,	-1,	-1,	-1,	-1,	-1,	-1,	-1,	-1,	-1,	6,	-1,	-1,	32,	-1,	-1|
-1,	-1,	-1,	-1,	10,	-1,	-1,	-1,	-1,	-1,	-1,	-1,	-1,	-1,	-1,	-1,	-1,	-1,	21,	-1,	-1,	-1,	23,	-1,	7,	1,	-1,	-1,	-1,	-1,	-1,	-1,	-1,	-1,	-1,	-1|
3,	-1,	23,	-1,	-1,	-1,	7,	-1,	-1,	-1,	-1,	-1,	-1,	-1,	-1,	-1,	2,	-1,	-1,	35,	-1,	-1,	1,	16,	-1,	19,	-1,	29,	-1,	-1,	-1,	31,	-1,	-1,	30,	-1|
-1,	-1,	-1,	-1,	-1,	11,	-1,	22,	30,	-1,	-1,	-1,	19,	-1,	-1,	3,	-1,	1,	29,	-1,	-1,	-1,	-1,	-1,	24,	-1,	-1,	25,	-1,	-1,	-1,	18,	-1,	-1,	-1,	-1|
-1,	-1,	-1,	22,	-1,	-1,	-1,	-1,	-1,	-1,	-1,	-1,	4,	7,	-1,	-1,	-1,	-1,	-1,	10,	-1,	-1,	-1,	31,	-1,	-1,	-1,	-1,	32,	-1,	15,	-1,	26,	2,	5,	-1|
-1,	-1,	-1,	-1,	-1,	-1,	-1,	-1,	-1,	-1,	32,	-1,	16,	-1,	-1,	31,	-1,	11,	-1,	22,	19,	-1,	33,	5,	-1,	-1,	-1,	-1,	35,	15,	12,	-1,	-1,	-1,	-1,	-1|
-1,	-1,	-1,	15,	-1,	-1,	3,	-1,	5,	-1,	-1,	33,	-1,	-1,	34,	-1,	17,	36,	30,	-1,	-1,	-1,	-1,	9,	-1,	-1,	-1,	-1,	-1,	-1,	24,	-1,	-1,	-1,	-1,	-1|
-1,	-1,	-1,	-1,	31,	-1,	-1,	26,	-1,	-1,	-1,	-1,	-1,	10,	-1,	35,	-1,	-1,	18,	-1,	-1,	-1,	-1,	-1,	-1,	-1,	-1,	5,	20,	-1,	-1,	-1,	-1,	-1,	-1,	-1|
32,	-1,	22,	-1,	-1,	-1,	-1,	-1,	-1,	-1,	-1,	-1,	-1,	-1,	-1,	-1,	31,	-1,	16,	-1,	-1,	-1,	-1,	-1,	-1,	24,	35,	-1,	-1,	28,	-1,	-1,	-1,	-1,	-1,	-1|
2,	-1,	-1,	-1,	-1,	29,	27,	-1,	-1,	9,	-1,	-1,	-1,	13,	18,	-1,	14,	-1,	-1,	-1,	-1,	34,	-1,	-1,	-1,	-1,	-1,	-1,	8,	-1,	-1,	-1,	4,	-1,	-1,	-1|
-1,	-1,	-1,	-1,	-1,	-1,	18,	-1,	-1,	-1,	13,	-1,	-1,	-1,	16,	-1,	-1,	-1,	-1,	-1,	-1,	-1,	-1,	-1,	-1,	-1,	-1,	-1,	-1,	31,	29,	-1,	-1,	1,	-1,	-1|
-1,	-1,	-1,	-1,	23,	34,	-1,	14,	-1,	-1,	1,	-1,	-1,	-1,	20,	-1,	-1,	-1,	-1,	-1,	-1,	-1,	-1,	-1,	-1,	-1,	-1,	-1,	-1,	-1,	22,	-1,	-1,	6,	36,	-1|
-1,	-1,	-1,	-1,	-1,	-1,	-1,	-1,	-1,	-1,	17,	-1,	-1,	-1,	-1,	24,	-1,	-1,	-1,	13,	-1,	-1,	9,	15,	10,	-1,	4,	-1,	-1,	18,	-1,	-1,	-1,	-1,	-1,	-1|
-1,	-1,	16,	-1,	9,	-1,	-1,	-1,	-1,	-1,	-1,	-1,	30,	-1,	-1,	-1,	-1,	34,	-1,	-1,	-1,	-1,	-1,	-1,	1,	-1,	-1,	-1,	-1,	-1,	-1,	-1,	-1,	-1,	-1,	-1|
-1,	-1,	-1,	-1,	-1,	-1,	35,	-1,	-1,	-1,	-1,	-1,	-1,	-1,	-1,	-1,	-1,	-1,	-1,	-1,	-1,	-1,	-1,	-1,	-1,	-1,	-1,	11,	-1,	-1,	-1,	-1,	-1,	-1,	-1,	19|
9,	6,	-1,	-1,	-1,	-1,	33,	-1,	20,	5,	-1,	-1,	-1,	-1,	-1,	29,	-1,	-1,	19,	-1,	-1,	35,	-1,	-1,	-1,	-1,	-1,	-1,	-1,	-1,	10,	-1,	28,	-1,	-1,	-1|
13,	-1,	-1,	-1,	-1,	-1,	-1,	21,	-1,	-1,	-1,	-1,	-1,	-1,	4,	18,	-1,	-1,	-1,	7,	-1,	-1,	-1,	-1,	-1,	-1,	34,	-1,	31,	-1,	20,	-1,	-1,	-1,	-1,	-1|
-1,	36,	-1,	-1,	-1,	-1,	-1,	-1,	-1,	-1,	-1,	-1,	-1,	-1,	-1,	-1,	21,	13,	-1,	-1,	-1,	-1,	-1,	14,	-1,	-1,	-1,	-1,	-1,	-1,	26,	-1,	-1,	-1,	-1,	-1|
23,	-1,	27,	-1,	19,	-1,	-1,	36,	-1,	-1,	-1,	-1,	-1,	-1,	-1,	12,	33,	-1,	-1,	-1,	-1,	-1,	20,	-1,	-1,	17,	-1,	-1,	28,	4,	18,	-1,	-1,	-1,	-1,	24|
-1,	-1,	-1,	-1,	-1,	-1,	25,	-1,	-1,	-1,	-1,	-1,	-1,	-1,	-1,	-1,	-1,	-1,	-1,	-1,	-1,	-1,	-1,	-1,	-1,	-1,	10,	-1,	-1,	-1,	-1,	-1,	-1,	-1,	-1,	-1|];
